Version identifier: 22.1.1.0 | 2022-11-28 | 9160aff4d
CPXPARAM_ClockType                               1
CPXPARAM_Read_DataCheck                          1
CPXPARAM_Threads                                 1
CPXPARAM_TimeLimit                               7200
CPXPARAM_MIP_Tolerances_AbsMIPGap                0
CPXPARAM_MIP_Tolerances_MIPGap                   0
CPXPARAM_MIP_Tolerances_Integrality              0
Tried aggregator 2 times.
MIP Presolve eliminated 1022 rows and 1 columns.
MIP Presolve modified 1830 coefficients.
Aggregator did 750 substitutions.
Reduced MIP has 4033 rows, 2249 columns, and 11636 nonzeros.
Reduced MIP has 2249 binaries, 0 generals, 0 SOSs, and 0 indicators.
Presolve time = 0.02 sec. (15.18 ticks)
Probing time = 0.01 sec. (4.03 ticks)
Tried aggregator 1 time.
Detecting symmetries...
MIP Presolve eliminated 252 rows and 4 columns.
MIP Presolve modified 2 coefficients.
Reduced MIP has 3781 rows, 2245 columns, and 10876 nonzeros.
Reduced MIP has 2245 binaries, 0 generals, 0 SOSs, and 0 indicators.
Presolve time = 0.02 sec. (12.39 ticks)
Probing time = 0.00 sec. (2.41 ticks)
Clique table members: 7568.
MIP emphasis: balance optimality and feasibility.
MIP search method: dynamic search.
Parallel mode: none, using 1 thread.
Root relaxation solution time = 0.12 sec. (101.68 ticks)

        Nodes                                         Cuts/
   Node  Left     Objective  IInf  Best Integer    Best Bound    ItCnt     Gap

      0     0      250.0000   663                    250.0000     1439         
      0     0      250.0000   802                   Cuts: 159     1811         
      0     0      250.0000   650                   Cuts: 189     2417         
      0     0      250.0000   821               ZeroHalf: 171     2781         
Detecting symmetries...
      0     2      250.0000   795                    250.0000     2781         
Elapsed time = 2.07 sec. (1773.98 ticks, tree = 0.01 MB, solutions = 0)
      6     8      250.0000   572                    250.0000     5254         
     28    30      250.0000   617                    250.0000     7703         
     44    46      250.0000   634                    250.0000     9962         
     51    49      250.0000   580                    250.0000    12539         
     59    57      250.0000   758                    250.0000    14136         
     72    64      250.0000   623                    250.0000    17482         
     80    66      250.0000   558                    250.0000    20015         
     90    72      247.0000   614                    250.0000    22901         
     94    72    infeasible                          250.0000    25463         
*   114     1      integral     0      250.0000      250.0000    28366    0.00%

Zero-half cuts applied:  17

Root node processing (before b&c):
  Real time             =    2.06 sec. (1767.03 ticks)
Sequential b&c:
  Real time             =    3.13 sec. (2852.97 ticks)
                          ------------
Total (root+branch&cut) =    5.19 sec. (4620.00 ticks)
Solution is feasible.

---------------------
@@@ MIP_optimal
>>> Benchmark flat125-1.cnf k 2 OPT 250 TimeCost 5.788028955459595 TimeSolve 5.220296621322632 TimeRead 0.0033936500549316406 TimeTrans 0.5643386840820312
